num_rows = 9;
num_columns = 9;
num_ship_types = 4;
ships_of_type = [3,3,2,1];
input_grid = [| " "," "," "," "," "," "," "," "," "
              | " "," "," "," "," "," "," "," "," "
              | " "," "," "," "," "," "," "," "," "
              | " "," "," "," "," "," ","x"," "," "
              | " "," "," ",">"," "," "," "," "," "
              | " "," "," "," "," "," "," ","x"," "
              | " "," "," "," "," "," "," "," "," "
              | " "," "," "," "," "," "," "," "," "
              | " "," "," "," "," "," "," "," "," "
              |];
num_in_row = [1,4,0,3,3,2,4,0,2];
num_in_column = [1,2,5,2,0,2,2,3,2];