num_rows = 12;
num_columns = 12;
num_ship_types = 5;
ships_of_type = [4,4,2,1,1];
input_grid = [| "x"," "," "," "," "," "," "," "," "," "," "," "
              | " "," "," "," "," "," "," "," "," "," "," "," "
              | " "," "," "," ","x"," "," "," "," "," "," ","o"
              | " "," "," "," "," "," "," "," "," "," "," "," "
              | " "," "," "," "," "," "," "," "," "," "," "," "
              | " "," "," "," "," "," "," "," "," "," "," "," "
              | " "," "," "," "," ","#"," ","v"," "," "," "," "
              | " "," "," "," "," "," "," "," "," "," "," ","^"
              | " "," ","o"," "," "," "," "," "," ","o"," "," "
              | " "," "," "," "," "," "," "," "," "," "," "," "
              | " "," "," "," "," "," ",">"," "," "," "," "," "
              | " "," "," "," "," "," "," "," "," "," "," "," "
              |];
num_in_row = [6,0,2,3,2,2,2,2,4,0,2,2];
num_in_column = [4,2,2,2,2,6,1,4,0,1,0,3];