num_rows = 15;
num_columns = 15;
num_ship_types = 7;
ships_of_type = [3,2,0,0,4,3,4];
input_grid = [| " "," "," "," "," "," "," "," "," "," "," "," "," "," "," "
              | " "," "," "," "," "," "," "," "," "," "," "," "," "," "," "
              | " "," "," "," "," "," "," "," "," "," "," "," "," "," "," "
              | " "," "," "," "," "," "," "," "," "," "," "," "," "," "," "
              | " "," "," "," "," "," "," "," "," "," "," "," "," "," "," "
              | " "," "," "," "," "," "," "," "," "," "," "," "," "," "," "
              | " "," "," "," "," "," "," "," "," "," "," "," "," "," "," "
              | " "," "," "," "," "," "," "," "," "," "," "," "," "," "," "
              | " "," "," "," "," "," "," "," "," "," "," "," "," "," "," "
              | " "," "," "," "," "," "," "," "," "," "," "," "," "," "," "
              | " "," "," "," "," "," "," "," "," "," "," "," "," "," "," "
              | " "," "," "," "," "," "," "," "," "," "," "," "," "," "," "
              | " "," "," "," "," "," "," "," "," "," "," "," "," "," "," "
              | " "," "," "," "," "," "," "," "," "," "," "," "," "," "," "
              | " "," "," "," "," "," "," "," "," "," "," "," "," "," "," "
              |];
num_in_row = [6,4,8,2,2,9,3,7,3,8,2,1,8,1,9];
num_in_column = [1,8,2,5,5,7,7,7,6,3,2,8,0,11,1];