rows = 14;
columns = 10;
initial = [| <>,2,2,2,<>,<>,<>,<>,<>,<>
           | <>,<>,<>,<>,1,2,3,<>,4,2
           | 3,<>,<>,<>,<>,<>,<>,<>,<>,<>
           | <>,<>,3,<>,<>,<>,0,<>,<>,0
           | 2,<>,<>,<>,4,<>,<>,<>,<>,<>
           | <>,<>,<>,6,<>,<>,<>,2,<>,<>
           | <>,2,4,<>,<>,<>,<>,<>,<>,1
           | <>,2,<>,<>,<>,2,<>,<>,2,2
           | <>,<>,<>,<>,<>,<>,<>,<>,<>,1
           | 2,<>,<>,7,<>,<>,<>,<>,<>,<>
           | <>,3,<>,<>,<>,<>,4,<>,<>,0
           | 2,<>,2,3,4,<>,2,1,<>,<>
           | <>,2,<>,<>,<>,3,<>,<>,<>,<>
           | <>,<>,2,2,<>,<>,3,<>,4,<>
           |];