x_extent=7;
y_extent=7;
rect_offset=[|0,0|0,0|0,1|1,0|0,0|1,2|0,0|2,1|0,1|1,0|0,0|1,1|0,1|1,0|0,0|0,2|1,0|1,1|0,1|2,1|1,0|1,2|1,1|2,1|0,1|2,0|1,0|1,1|0,0|1,0|2,0|0,1|0,2|1,1|2,2|0,0|0,0|0,2|2,0|2,2|];
rect_size=[|4,1|1,4|1,1|2,3|3,2|1,1|2,3|1,1|3,2|1,1|1,3|1,1|3,1|1,3|3,1|3,1|2,1|3,1|1,2|1,3|3,1|2,1|1,3|1,2|4,1|1,1|1,4|2,1|1,1|1,2|1,3|2,1|1,1|1,2|1,1|2,1|1,2|1,2|1,2|2,1|];
shape=[{1}, {2}, {3, 4}, {5, 6}, {8, 7}, {9, 10}, {11, 12}, {10, 13}, {3, 14}, {12, 15}, {16, 17, 18}, {19, 20, 14}, {21, 13, 22}, {24, 11, 23}, {1, 12}, {2, 6}, {25, 26}, {27, 3}, {16, 26, 28}, {29, 30, 31}, {32, 33, 15}, {35, 34, 11}, {36}, {37}, {1, 28}, {2, 34}, {25, 17}, {27, 19}, {34, 38, 39}, {40, 36, 28}];
shape_index=[{1, 2}, {3, 4, 5, 6}, {8, 9, 10, 7}, {11, 12, 13, 14}, {16, 17, 18, 15}, {19, 20, 21, 22}, {24, 23}, {25, 26, 27, 28}, {29, 30}];