x_extent=11;
y_extent=9;
rect_offset=[|0,0|0,2|1,4|0,2|2,0|4,2|0,1|2,0|2,3|0,1|1,0|3,0|0,0|0,3|0,0|3,1|0,1|1,0|0,0|1,0|0,1|2,1|2,4|3,0|1,0|1,5|4,1|0,1|1,0|5,3|0,2|1,2|3,0|4,3|1,0|0,1|4,0|0,0|1,1|1,2|1,0|2,1|0,0|0,0|];
rect_size=[|4,2|6,2|3,1|2,4|2,6|1,3|6,2|3,1|4,2|1,3|2,6|2,4|4,3|3,1|3,4|1,3|4,3|3,1|1,3|3,4|2,1|5,3|4,1|3,1|3,5|1,2|1,4|5,3|4,1|2,1|1,4|3,5|1,2|1,3|2,3|3,2|1,3|3,1|3,1|2,3|1,3|3,2|5,4|4,5|];
shape=[{1, 2, 3}, {4, 5, 6}, {8, 9, 7}, {10, 11, 12}, {13, 14}, {16, 15}, {17, 18}, {19, 20}, {24, 21, 22, 23}, {27, 25, 10, 26}, {3, 28, 29, 30}, {32, 33, 34, 31}, {3, 35, 14}, {16, 36, 37}, {40, 38, 39}, {41, 10, 42}, {43}, {44}];
shape_index=[{1, 2, 3, 4}, {8, 5, 6, 7}, {9, 10, 11, 12}, {16, 13, 14, 15}, {17, 18}];