flights = [(preferred: 25, earliest: 20, latest: 30), (preferred: 25, earliest: 20, latest: 30), (preferred: 25, earliest: 20, latest: 30), (preferred: 35, earliest: 30, latest: 36), (preferred: 35, earliest: 30, latest: 36), (preferred: 35, earliest: 34, latest: 37), (preferred: 35, earliest: 34, latest: 37), (preferred: 35, earliest: 34, latest: 37), (preferred: 25, earliest: 20, latest: 30), (preferred: 25, earliest: 20, latest: 30)];
config = (start: 0, end: 90);
candidates = [| 4, 1, 1, 21 | 5, 1, 1, 28 | 17, 1, 4, 30 | 4, 2, 1, 21 | 5, 2, 1, 28 | 17, 2, 4, 30 | 0, 2, -1, -1 | 10, 3, 2, 24 | 11, 3, 3, 30 | 0, 3, -1, -1 | 11, 4, 3, 30 | 12, 4, 3, 35 | 17, 4, 4, 30 | 18, 4, 4, 34 | 11, 5, 3, 30 | 12, 5, 3, 35 | 12, 6, 3, 35 | 18, 6, 4, 34 | 0, 6, -1, -1 | 12, 7, 3, 35 | 0, 7, -1, -1 | 12, 8, 3, 35 | 0, 8, -1, -1 | 4, 9, 1, 21 | 5, 9, 1, 28 | 17, 9, 4, 30 | 0, 9, -1, -1 | 4, 10, 1, 21 | 5, 10, 1, 28 | 17, 10, 4, 30 | 0, 10, -1, -1 |];