flights = [(id:"QFA1", preferred:420,earliest:415,latest:425, rwy:{R34L,R34R,R16L,R16R}, priority: false),
           (id:"QFA123", preferred:422,earliest:420,latest:425, rwy:{R34L,R34R,R16L,R16R}, priority: false),
           (id:"VOZ42", preferred:430,earliest:420,latest:440, rwy:{R34L,R34R,R25}, priority: false),
           (id:"VOZ111", preferred:425,earliest:424,latest:430, rwy:{R34L,R34R,R16L,R16R}, priority: false),
           (id:"JST666", preferred:440,earliest:430,latest:445, rwy:{R34L,R34R}, priority: false),
           (id:"RXA1", preferred:426,earliest:424,latest:428, rwy:{R34R,R25,R07}, priority:true),
           (id:"JST12", preferred:435,earliest:430,latest:440, rwy:{R34L,R25,R07}, priority: false),
           (id:"BAW1", preferred:431,earliest:430,latest:435, rwy:{R34R,R25,R07}, priority: false)
          ];
config = (id:"YSSY000101", start:420, end:440, rate:[8,5,<>,<>,<>,<>]);
runway = {R34L,R34R,R16L,R16R,R25,R07};