flights = [(preferred:420,earliest:415,latest:425,rwy:{1,2},priority:0),
           (preferred:422,earliest:420,latest:425,rwy:{1,2},priority:0),
           (preferred:430,earliest:420,latest:440,rwy:{1,2},priority:0),
           (preferred:425,earliest:424,latest:430,rwy:{1,2},priority:0),
           (preferred:440,earliest:430,latest:445,rwy:{1,2},priority:0),
           (preferred:426,earliest:424,latest:428,rwy:{2},priority:1),
           (preferred:435,earliest:430,latest:440,rwy:{1},priority:0),
           (preferred:431,earliest:430,latest:435,rwy:{2},priority:0)
          ];
config = (start:420, end:440, rate:[8,5]);
filter = 0;
