flights = [(preferred:25,earliest:20,latest:30),
           (preferred:35,earliest:30,latest:36),
           (preferred:35,earliest:34,latest:37)];
config = (start:0, end:60, rate:[10,7]);
candidates = [|
1, 1, 20 |
1, 1, 21 |
1, 1, 22 |
1, 1, 23 |
1, 1, 24 |
1, 1, 25 |
1, 1, 26 |
1, 1, 27 |
1, 1, 28 |
1, 1, 29 |
1, 1, 30 |
1, 2, 20 |
1, 2, 21 |
1, 2, 22 |
1, 2, 23 |
1, 2, 24 |
1, 2, 25 |
1, 2, 26 |
1, 2, 27 |
1, 2, 28 |
1, 2, 29 |
1, 2, 30 |
1, -1, -1 |
2, 2, 30 |
2, 2, 31 |
2, 2, 32 |
2, 2, 33 |
2, 2, 34 |
2, 2, 35 |
2, 2, 36 |
2, -1, -1 |
3, 2, 34 |
3, 2, 35 |
3, 2, 36 |
3, 2, 37 |
3, -1, -1
|];