flights = [(preferred:420,earliest:415,latest:425),
           (preferred:422,earliest:420,latest:425),
           (preferred:430,earliest:420,latest:440),
           (preferred:425,earliest:424,latest:430),
           (preferred:440,earliest:430,latest:445),
           (preferred:426,earliest:424,latest:428),
           (preferred:435,earliest:430,latest:440),
           (preferred:431,earliest:430,latest:435)
          ];
config = (start:420,end:440,rate:[8,5]);
candidates = [|
1, 1, 420 |
1, 1, 421 |
1, 1, 422 |
1, 1, 423 |
1, 1, 424 |
1, 1, 425 |
1, 2, 420 |
1, 2, 421 |
1, 2, 422 |
1, 2, 423 |
1, 2, 424 |
1, 2, 425 |
1, -1, -1 |
2, 1, 420 |
2, 1, 421 |
2, 1, 422 |
2, 1, 423 |
2, 1, 424 |
2, 1, 425 |
2, 2, 420 |
2, 2, 421 |
2, 2, 422 |
2, 2, 423 |
2, 2, 424 |
2, 2, 425 |
2, -1, -1 |
3, 1, 420 |
3, 1, 421 |
3, 1, 422 |
3, 1, 423 |
3, 1, 424 |
3, 1, 425 |
3, 1, 426 |
3, 1, 427 |
3, 1, 428 |
3, 1, 429 |
3, 1, 430 |
3, 1, 431 |
3, 1, 432 |
3, 1, 433 |
3, 1, 434 |
3, 1, 435 |
3, 1, 436 |
3, 1, 437 |
3, 1, 438 |
3, 1, 439 |
3, 1, 440 |
3, 2, 420 |
3, 2, 421 |
3, 2, 422 |
3, 2, 423 |
3, 2, 424 |
3, 2, 425 |
3, 2, 426 |
3, 2, 427 |
3, 2, 428 |
3, 2, 429 |
3, 2, 430 |
3, 2, 431 |
3, 2, 432 |
3, 2, 433 |
3, 2, 434 |
3, 2, 435 |
3, 2, 436 |
3, 2, 437 |
3, 2, 438 |
3, 2, 439 |
3, 2, 440 |
3, -1, -1 |
4, 1, 424 |
4, 1, 425 |
4, 1, 426 |
4, 1, 427 |
4, 1, 428 |
4, 1, 429 |
4, 1, 430 |
4, 2, 424 |
4, 2, 425 |
4, 2, 426 |
4, 2, 427 |
4, 2, 428 |
4, 2, 429 |
4, 2, 430 |
4, -1, -1 |
5, 1, 430 |
5, 1, 431 |
5, 1, 432 |
5, 1, 433 |
5, 1, 434 |
5, 1, 435 |
5, 1, 436 |
5, 1, 437 |
5, 1, 438 |
5, 1, 439 |
5, 1, 440 |
5, 2, 430 |
5, 2, 431 |
5, 2, 432 |
5, 2, 433 |
5, 2, 434 |
5, 2, 435 |
5, 2, 436 |
5, 2, 437 |
5, 2, 438 |
5, 2, 439 |
5, 2, 440 |
5, -1, -1 |
6, 2, 424 |
6, 2, 425 |
6, 2, 426 |
6, 2, 427 |
6, 2, 428 |
%6, -1, -1 | Omit as RXA1 is a priority flight.
7, 1, 430 |
7, 1, 431 |
7, 1, 432 |
7, 1, 433 |
7, 1, 434 |
7, 1, 435 |
7, 1, 436 |
7, 1, 437 |
7, 1, 438 |
7, 1, 439 |
7, 1, 440 |
7, -1, -1 |
8, 2, 430 |
8, 2, 431 |
8, 2, 432 |
8, 2, 433 |
8, 2, 434 |
8, 2, 435 |
8, -1, -1 |
|];