flights = [(preferred:420,earliest:415,latest:425),
           (preferred:422,earliest:420,latest:425),
           (preferred:430,earliest:420,latest:440),
           (preferred:425,earliest:424,latest:430),
           (preferred:440,earliest:430,latest:445),
           (preferred:426,earliest:424,latest:428),
           (preferred:435,earliest:430,latest:440),
           (preferred:431,earliest:430,latest:435)
          ];
config = (start:420,end:440);
candidates = [| 1, 1, 1, 420 | 4, 1, 2, 420 | 5, 1, 2, 425 | 0, 1, -1, -1 | 1, 2, 1, 420 | 4, 2, 2, 420 | 5, 2, 2, 425
              | 0, 2, -1, -1  | 1, 3, 1, 420 | 2, 3, 1, 428 | 3, 3, 1, 436 | 4, 3, 2, 420 | 5, 3, 2, 425 | 6, 3, 2, 430
              | 7, 3, 2, 435 | 0, 3, -1, -1 | 2, 4, 1, 428 | 5, 4, 2, 425 | 6, 4, 2, 430 | 0, 4, -1, -1 | 3, 5, 1, 436
              | 6, 5, 2, 430 | 7, 5, 2, 435 | 0, 5, -1, -1 | 5, 6, 2, 425 | 3, 7, 1, 436 | 0, 7, -1, -1 | 7, 8, 2, 435 | 0, 8, -1, -1 |];